instances_and_solutions/roster/eprime/param/36_3_4.param
language ESSENCE' 1.0
letting shiftRequirements = [[20, 1, 4, 11], [6, 2, 5, 23], [5, 2, 5, 24], [5, 1, 4, 26], [18, 1, 5, 12], [27, 1, 3, 5], [27, 1, 3, 5]]
letting numberOfWeeks = 36
letting s_min = 3
letting s_max = 4
